<?xml version = "1.0" standalone="yes"?>
<!-- This file has been generated by DOcplex version 2.23.222  -->
<CPLEXSolution version="1.0">
 <header
   problemName="CVRP"
   objectiveValue="13962.2"
  />
 <variables>
  <variable name="x_0_1" index="0" value="1.00000"/>
  <variable name="x_0_3" index="2" value="1.00000"/>
  <variable name="x_0_4" index="3" value="1.00000"/>
  <variable name="x_0_8" index="7" value="1.00000"/>
  <variable name="x_0_9" index="8" value="1.00000"/>
  <variable name="x_0_11" index="10" value="1.00000"/>
  <variable name="x_0_15" index="14" value="1.00000"/>
  <variable name="x_0_16" index="15" value="1.00000"/>
  <variable name="x_0_19" index="18" value="1.00000"/>
  <variable name="x_0_20" index="19" value="1.00000"/>
  <variable name="x_1_7" index="26" value="1.00000"/>
  <variable name="x_2_6" index="45" value="1.00000"/>
  <variable name="x_3_14" index="73" value="1.00000"/>
  <variable name="x_4_12" index="91" value="1.00000"/>
  <variable name="x_5_13" index="112" value="1.00000"/>
  <variable name="x_6_0" index="120" value="1.00000"/>
  <variable name="x_7_18" index="157" value="1.00000"/>
  <variable name="x_8_0" index="160" value="1.00000"/>
  <variable name="x_9_0" index="180" value="1.00000"/>
  <variable name="x_10_0" index="200" value="1.00000"/>
  <variable name="x_11_17" index="236" value="1.00000"/>
  <variable name="x_12_0" index="240" value="1.00000"/>
  <variable name="x_13_0" index="260" value="1.00000"/>
  <variable name="x_14_0" index="280" value="1.00000"/>
  <variable name="x_15_0" index="300" value="1.00000"/>
  <variable name="x_16_10" index="330" value="1.00000"/>
  <variable name="x_17_0" index="340" value="1.00000"/>
  <variable name="x_18_0" index="360" value="1.00000"/>
  <variable name="x_19_5" index="385" value="1.00000"/>
  <variable name="x_20_2" index="402" value="1.00000"/>
  <variable name="u_1" index="420" value="5.00000"/>
  <variable name="u_2" index="421" value="39.00000"/>
  <variable name="u_3" index="422" value="23.00000"/>
  <variable name="u_4" index="423" value="37.00000"/>
  <variable name="u_5" index="424" value="10.00000"/>
  <variable name="u_6" index="425" value="41.00000"/>
  <variable name="u_7" index="426" value="22.00000"/>
  <variable name="u_8" index="427" value="34.00000"/>
  <variable name="u_9" index="428" value="28.00000"/>
  <variable name="u_10" index="429" value="36.00000"/>
  <variable name="u_11" index="430" value="27.00000"/>
  <variable name="u_12" index="431" value="41.00000"/>
  <variable name="u_13" index="432" value="41.00000"/>
  <variable name="u_14" index="433" value="41.00000"/>
  <variable name="u_15" index="434" value="40.00000"/>
  <variable name="u_16" index="435" value="24.00000"/>
  <variable name="u_17" index="436" value="36.00000"/>
  <variable name="u_18" index="437" value="41.00000"/>
  <variable name="u_19" index="438" value="8.00000"/>
  <variable name="u_20" index="439" value="15.00000"/>
 </variables>
</CPLEXSolution>
